<instance format="XCSP3" type="CSP">
  <variables>
    <array id="p" note="p[i][j] is one of the position of the jth value of the ith 3-combination" size="[20][8]"> 0..11 </array>
    <array id="v" note="v[i][j] is the jth value of the ith 3-combination" size="[20][12]"> 0..7 </array>
  </variables>
  <constraints>
    <group note="all values must be present in each 3-combination">
      <allDifferent> %... </allDifferent>
      <args> p[0][] </args>
      <args> p[1][] </args>
      <args> p[2][] </args>
      <args> p[3][] </args>
      <args> p[4][] </args>
      <args> p[5][] </args>
      <args> p[6][] </args>
      <args> p[7][] </args>
      <args> p[8][] </args>
      <args> p[9][] </args>
      <args> p[10][] </args>
      <args> p[11][] </args>
      <args> p[12][] </args>
      <args> p[13][] </args>
      <args> p[14][] </args>
      <args> p[15][] </args>
      <args> p[16][] </args>
      <args> p[17][] </args>
      <args> p[18][] </args>
      <args> p[19][] </args>
    </group>
    <group>
      <element>
        <list> v[0][] </list>
        <index> %0 </index>
        <value> %1 </value>
      </element>
      <args> p[0][0] 0 </args>
      <args> p[0][1] 1 </args>
      <args> p[0][2] 2 </args>
      <args> p[0][3] 3 </args>
      <args> p[0][4] 4 </args>
      <args> p[0][5] 5 </args>
      <args> p[0][6] 6 </args>
      <args> p[0][7] 7 </args>
    </group>
    <group>
      <element>
        <list> v[1][] </list>
        <index> %0 </index>
        <value> %1 </value>
      </element>
      <args> p[1][0] 0 </args>
      <args> p[1][1] 1 </args>
      <args> p[1][2] 2 </args>
      <args> p[1][3] 3 </args>
      <args> p[1][4] 4 </args>
      <args> p[1][5] 5 </args>
      <args> p[1][6] 6 </args>
      <args> p[1][7] 7 </args>
    </group>
    <group>
      <element>
        <list> v[2][] </list>
        <index> %0 </index>
        <value> %1 </value>
      </element>
      <args> p[2][0] 0 </args>
      <args> p[2][1] 1 </args>
      <args> p[2][2] 2 </args>
      <args> p[2][3] 3 </args>
      <args> p[2][4] 4 </args>
      <args> p[2][5] 5 </args>
      <args> p[2][6] 6 </args>
      <args> p[2][7] 7 </args>
    </group>
    <group>
      <element>
        <list> v[3][] </list>
        <index> %0 </index>
        <value> %1 </value>
      </element>
      <args> p[3][0] 0 </args>
      <args> p[3][1] 1 </args>
      <args> p[3][2] 2 </args>
      <args> p[3][3] 3 </args>
      <args> p[3][4] 4 </args>
      <args> p[3][5] 5 </args>
      <args> p[3][6] 6 </args>
      <args> p[3][7] 7 </args>
    </group>
    <group>
      <element>
        <list> v[4][] </list>
        <index> %0 </index>
        <value> %1 </value>
      </element>
      <args> p[4][0] 0 </args>
      <args> p[4][1] 1 </args>
      <args> p[4][2] 2 </args>
      <args> p[4][3] 3 </args>
      <args> p[4][4] 4 </args>
      <args> p[4][5] 5 </args>
      <args> p[4][6] 6 </args>
      <args> p[4][7] 7 </args>
    </group>
    <group>
      <element>
        <list> v[5][] </list>
        <index> %0 </index>
        <value> %1 </value>
      </element>
      <args> p[5][0] 0 </args>
      <args> p[5][1] 1 </args>
      <args> p[5][2] 2 </args>
      <args> p[5][3] 3 </args>
      <args> p[5][4] 4 </args>
      <args> p[5][5] 5 </args>
      <args> p[5][6] 6 </args>
      <args> p[5][7] 7 </args>
    </group>
    <group>
      <element>
        <list> v[6][] </list>
        <index> %0 </index>
        <value> %1 </value>
      </element>
      <args> p[6][0] 0 </args>
      <args> p[6][1] 1 </args>
      <args> p[6][2] 2 </args>
      <args> p[6][3] 3 </args>
      <args> p[6][4] 4 </args>
      <args> p[6][5] 5 </args>
      <args> p[6][6] 6 </args>
      <args> p[6][7] 7 </args>
    </group>
    <group>
      <element>
        <list> v[7][] </list>
        <index> %0 </index>
        <value> %1 </value>
      </element>
      <args> p[7][0] 0 </args>
      <args> p[7][1] 1 </args>
      <args> p[7][2] 2 </args>
      <args> p[7][3] 3 </args>
      <args> p[7][4] 4 </args>
      <args> p[7][5] 5 </args>
      <args> p[7][6] 6 </args>
      <args> p[7][7] 7 </args>
    </group>
    <group>
      <element>
        <list> v[8][] </list>
        <index> %0 </index>
        <value> %1 </value>
      </element>
      <args> p[8][0] 0 </args>
      <args> p[8][1] 1 </args>
      <args> p[8][2] 2 </args>
      <args> p[8][3] 3 </args>
      <args> p[8][4] 4 </args>
      <args> p[8][5] 5 </args>
      <args> p[8][6] 6 </args>
      <args> p[8][7] 7 </args>
    </group>
    <group>
      <element>
        <list> v[9][] </list>
        <index> %0 </index>
        <value> %1 </value>
      </element>
      <args> p[9][0] 0 </args>
      <args> p[9][1] 1 </args>
      <args> p[9][2] 2 </args>
      <args> p[9][3] 3 </args>
      <args> p[9][4] 4 </args>
      <args> p[9][5] 5 </args>
      <args> p[9][6] 6 </args>
      <args> p[9][7] 7 </args>
    </group>
    <group>
      <element>
        <list> v[10][] </list>
        <index> %0 </index>
        <value> %1 </value>
      </element>
      <args> p[10][0] 0 </args>
      <args> p[10][1] 1 </args>
      <args> p[10][2] 2 </args>
      <args> p[10][3] 3 </args>
      <args> p[10][4] 4 </args>
      <args> p[10][5] 5 </args>
      <args> p[10][6] 6 </args>
      <args> p[10][7] 7 </args>
    </group>
    <group>
      <element>
        <list> v[11][] </list>
        <index> %0 </index>
        <value> %1 </value>
      </element>
      <args> p[11][0] 0 </args>
      <args> p[11][1] 1 </args>
      <args> p[11][2] 2 </args>
      <args> p[11][3] 3 </args>
      <args> p[11][4] 4 </args>
      <args> p[11][5] 5 </args>
      <args> p[11][6] 6 </args>
      <args> p[11][7] 7 </args>
    </group>
    <group>
      <element>
        <list> v[12][] </list>
        <index> %0 </index>
        <value> %1 </value>
      </element>
      <args> p[12][0] 0 </args>
      <args> p[12][1] 1 </args>
      <args> p[12][2] 2 </args>
      <args> p[12][3] 3 </args>
      <args> p[12][4] 4 </args>
      <args> p[12][5] 5 </args>
      <args> p[12][6] 6 </args>
      <args> p[12][7] 7 </args>
    </group>
    <group>
      <element>
        <list> v[13][] </list>
        <index> %0 </index>
        <value> %1 </value>
      </element>
      <args> p[13][0] 0 </args>
      <args> p[13][1] 1 </args>
      <args> p[13][2] 2 </args>
      <args> p[13][3] 3 </args>
      <args> p[13][4] 4 </args>
      <args> p[13][5] 5 </args>
      <args> p[13][6] 6 </args>
      <args> p[13][7] 7 </args>
    </group>
    <group>
      <element>
        <list> v[14][] </list>
        <index> %0 </index>
        <value> %1 </value>
      </element>
      <args> p[14][0] 0 </args>
      <args> p[14][1] 1 </args>
      <args> p[14][2] 2 </args>
      <args> p[14][3] 3 </args>
      <args> p[14][4] 4 </args>
      <args> p[14][5] 5 </args>
      <args> p[14][6] 6 </args>
      <args> p[14][7] 7 </args>
    </group>
    <group>
      <element>
        <list> v[15][] </list>
        <index> %0 </index>
        <value> %1 </value>
      </element>
      <args> p[15][0] 0 </args>
      <args> p[15][1] 1 </args>
      <args> p[15][2] 2 </args>
      <args> p[15][3] 3 </args>
      <args> p[15][4] 4 </args>
      <args> p[15][5] 5 </args>
      <args> p[15][6] 6 </args>
      <args> p[15][7] 7 </args>
    </group>
    <group>
      <element>
        <list> v[16][] </list>
        <index> %0 </index>
        <value> %1 </value>
      </element>
      <args> p[16][0] 0 </args>
      <args> p[16][1] 1 </args>
      <args> p[16][2] 2 </args>
      <args> p[16][3] 3 </args>
      <args> p[16][4] 4 </args>
      <args> p[16][5] 5 </args>
      <args> p[16][6] 6 </args>
      <args> p[16][7] 7 </args>
    </group>
    <group>
      <element>
        <list> v[17][] </list>
        <index> %0 </index>
        <value> %1 </value>
      </element>
      <args> p[17][0] 0 </args>
      <args> p[17][1] 1 </args>
      <args> p[17][2] 2 </args>
      <args> p[17][3] 3 </args>
      <args> p[17][4] 4 </args>
      <args> p[17][5] 5 </args>
      <args> p[17][6] 6 </args>
      <args> p[17][7] 7 </args>
    </group>
    <group>
      <element>
        <list> v[18][] </list>
        <index> %0 </index>
        <value> %1 </value>
      </element>
      <args> p[18][0] 0 </args>
      <args> p[18][1] 1 </args>
      <args> p[18][2] 2 </args>
      <args> p[18][3] 3 </args>
      <args> p[18][4] 4 </args>
      <args> p[18][5] 5 </args>
      <args> p[18][6] 6 </args>
      <args> p[18][7] 7 </args>
    </group>
    <group>
      <element>
        <list> v[19][] </list>
        <index> %0 </index>
        <value> %1 </value>
      </element>
      <args> p[19][0] 0 </args>
      <args> p[19][1] 1 </args>
      <args> p[19][2] 2 </args>
      <args> p[19][3] 3 </args>
      <args> p[19][4] 4 </args>
      <args> p[19][5] 5 </args>
      <args> p[19][6] 6 </args>
      <args> p[19][7] 7 </args>
    </group>
    <group note="computing values">
      <extension>
        <list> %... </list>
        <supports> (0,0,0,0,0,0,0,0,0,0,0,0,0,0,0,0,0,0,0,0)(0,0,0,1,0,0,1,0,1,1,0,0,1,0,1,1,0,1,1,1)(0,0,1,0,0,1,0,1,0,2,0,1,0,1,0,2,1,0,2,2)(0,0,1,1,0,1,1,1,1,3,0,1,1,1,1,3,1,1,3,3)(0,1,0,0,1,0,0,2,2,0,1,0,0,2,2,0,2,2,0,4)(0,1,0,1,1,0,1,2,3,1,1,0,1,2,3,1,2,3,1,5)(0,1,1,0,1,1,0,3,2,2,1,1,0,3,2,2,3,2,2,6)(0,1,1,1,1,1,1,3,3,3,1,1,1,3,3,3,3,3,3,7)(1,0,0,0,2,2,2,0,0,0,2,2,2,0,0,0,4,4,4,0)(1,0,0,1,2,2,3,0,1,1,2,2,3,0,1,1,4,5,5,1)(1,0,1,0,2,3,2,1,0,2,2,3,2,1,0,2,5,4,6,2)(1,0,1,1,2,3,3,1,1,3,2,3,3,1,1,3,5,5,7,3)(1,1,0,0,3,2,2,2,2,0,3,2,2,2,2,0,6,6,4,4)(1,1,0,1,3,2,3,2,3,1,3,2,3,2,3,1,6,7,5,5)(1,1,1,0,3,3,2,3,2,2,3,3,2,3,2,2,7,6,6,6)(1,1,1,1,3,3,3,3,3,3,3,3,3,3,3,3,7,7,7,7)(2,2,2,2,0,0,0,0,0,0,4,4,4,4,4,4,0,0,0,0)(2,2,2,3,0,0,1,0,1,1,4,4,5,4,5,5,0,1,1,1)(2,2,3,2,0,1,0,1,0,2,4,5,4,5,4,6,1,0,2,2)(2,2,3,3,0,1,1,1,1,3,4,5,5,5,5,7,1,1,3,3)(2,3,2,2,1,0,0,2,2,0,5,4,4,6,6,4,2,2,0,4)(2,3,2,3,1,0,1,2,3,1,5,4,5,6,7,5,2,3,1,5)(2,3,3,2,1,1,0,3,2,2,5,5,4,7,6,6,3,2,2,6)(2,3,3,3,1,1,1,3,3,3,5,5,5,7,7,7,3,3,3,7)(3,2,2,2,2,2,2,0,0,0,6,6,6,4,4,4,4,4,4,0)(3,2,2,3,2,2,3,0,1,1,6,6,7,4,5,5,4,5,5,1)(3,2,3,2,2,3,2,1,0,2,6,7,6,5,4,6,5,4,6,2)(3,2,3,3,2,3,3,1,1,3,6,7,7,5,5,7,5,5,7,3)(3,3,2,2,3,2,2,2,2,0,7,6,6,6,6,4,6,6,4,4)(3,3,2,3,3,2,3,2,3,1,7,6,7,6,7,5,6,7,5,5)(3,3,3,2,3,3,2,3,2,2,7,7,6,7,6,6,7,6,6,6)(3,3,3,3,3,3,3,3,3,3,7,7,7,7,7,7,7,7,7,7)(4,4,4,4,4,4,4,4,4,4,0,0,0,0,0,0,0,0,0,0)(4,4,4,5,4,4,5,4,5,5,0,0,1,0,1,1,0,1,1,1)(4,4,5,4,4,5,4,5,4,6,0,1,0,1,0,2,1,0,2,2)(4,4,5,5,4,5,5,5,5,7,0,1,1,1,1,3,1,1,3,3)(4,5,4,4,5,4,4,6,6,4,1,0,0,2,2,0,2,2,0,4)(4,5,4,5,5,4,5,6,7,5,1,0,1,2,3,1,2,3,1,5)(4,5,5,4,5,5,4,7,6,6,1,1,0,3,2,2,3,2,2,6)(4,5,5,5,5,5,5,7,7,7,1,1,1,3,3,3,3,3,3,7)(5,4,4,4,6,6,6,4,4,4,2,2,2,0,0,0,4,4,4,0)(5,4,4,5,6,6,7,4,5,5,2,2,3,0,1,1,4,5,5,1)(5,4,5,4,6,7,6,5,4,6,2,3,2,1,0,2,5,4,6,2)(5,4,5,5,6,7,7,5,5,7,2,3,3,1,1,3,5,5,7,3)(5,5,4,4,7,6,6,6,6,4,3,2,2,2,2,0,6,6,4,4)(5,5,4,5,7,6,7,6,7,5,3,2,3,2,3,1,6,7,5,5)(5,5,5,4,7,7,6,7,6,6,3,3,2,3,2,2,7,6,6,6)(5,5,5,5,7,7,7,7,7,7,3,3,3,3,3,3,7,7,7,7)(6,6,6,6,4,4,4,4,4,4,4,4,4,4,4,4,0,0,0,0)(6,6,6,7,4,4,5,4,5,5,4,4,5,4,5,5,0,1,1,1)(6,6,7,6,4,5,4,5,4,6,4,5,4,5,4,6,1,0,2,2)(6,6,7,7,4,5,5,5,5,7,4,5,5,5,5,7,1,1,3,3)(6,7,6,6,5,4,4,6,6,4,5,4,4,6,6,4,2,2,0,4)(6,7,6,7,5,4,5,6,7,5,5,4,5,6,7,5,2,3,1,5)(6,7,7,6,5,5,4,7,6,6,5,5,4,7,6,6,3,2,2,6)(6,7,7,7,5,5,5,7,7,7,5,5,5,7,7,7,3,3,3,7)(7,6,6,6,6,6,6,4,4,4,6,6,6,4,4,4,4,4,4,0)(7,6,6,7,6,6,7,4,5,5,6,6,7,4,5,5,4,5,5,1)(7,6,7,6,6,7,6,5,4,6,6,7,6,5,4,6,5,4,6,2)(7,6,7,7,6,7,7,5,5,7,6,7,7,5,5,7,5,5,7,3)(7,7,6,6,7,6,6,6,6,4,7,6,6,6,6,4,6,6,4,4)(7,7,6,7,7,6,7,6,7,5,7,6,7,6,7,5,6,7,5,5)(7,7,7,6,7,7,6,7,6,6,7,7,6,7,6,6,7,6,6,6)(7,7,7,7,7,7,7,7,7,7,7,7,7,7,7,7,7,7,7,7) </supports>
      </extension>
      <args> v[][0] </args>
      <args> v[][1] </args>
      <args> v[][2] </args>
      <args> v[][3] </args>
      <args> v[][4] </args>
      <args> v[][5] </args>
      <args> v[][6] </args>
      <args> v[][7] </args>
      <args> v[][8] </args>
      <args> v[][9] </args>
      <args> v[][10] </args>
      <args> v[][11] </args>
    </group>
  </constraints>
</instance>
